c FILE: david.col
c Translated from Stanford GraphBase File: david.gb
c Stanford GraphBase ID: book(?david?,87,0,1,64,0,0,0)
p edge 87 812
b 11
e 4 1
e 4 2
e 7 2
e 11 2
e 11 9
e 12 4
e 14 1
e 14 4
e 14 9
e 14 11
e 14 12
e 16 2
e 18 4
e 19 2
e 19 4
e 19 7
e 19 13
e 19 17
e 20 1
e 20 4
e 20 12
e 20 14
e 21 4
e 21 12
e 21 14
e 21 20
e 22 3
e 22 16
e 23 2
e 23 3
e 23 19
e 27 13
e 27 19
e 29 2
e 29 23
e 31 5
e 32 2
e 32 4
e 32 12
e 32 14
e 32 19
e 32 20
e 32 21
e 33 2
e 33 3
e 33 7
e 33 23
e 33 29
e 34 2
e 34 4
e 34 5
e 34 7
e 34 12
e 34 14
e 34 19
e 34 20
e 34 21
e 34 31
e 34 32
e 35 2
e 35 7
e 35 19
e 35 23
e 35 29
e 35 34
e 36 12
e 37 17
e 37 19
e 39 2
e 39 30
e 40 9
e 40 11
e 40 14
e 42 2
e 42 10
e 42 16
e 42 19
e 42 22
e 43 2
e 43 13
e 43 19
e 43 23
e 43 27
e 43 42
e 44 31
e 45 17
e 45 19
e 45 37
e 46 2
e 46 4
e 46 12
e 46 14
e 46 19
e 46 20
e 46 21
e 46 32
e 46 34
e 47 6
e 49 4
e 49 8
e 49 14
e 49 15
e 49 18
e 49 19
e 49 20
e 50 17
e 50 19
e 50 37
e 50 45
e 51 19
e 51 28
e 52 12
e 52 19
e 52 36
e 52 49
e 53 2
e 53 19
e 53 42
e 53 43
e 54 2
e 54 35
e 55 2
e 55 4
e 55 19
e 55 32
e 55 34
e 55 46
e 56 2
e 56 35
e 57 9
e 57 40
e 58 2
e 58 3
e 58 7
e 58 17
e 58 19
e 58 33
e 58 34
e 58 35
e 58 37
e 58 45
e 58 50
e 59 4
e 59 18
e 59 20
e 59 49
e 60 13
e 60 19
e 60 27
e 60 43
e 60 51
e 61 15
e 61 49
e 63 16
e 63 22
e 63 42
e 66 1
e 66 2
e 66 4
e 66 14
e 66 16
e 66 19
e 66 20
e 66 21
e 66 24
e 66 32
e 66 34
e 66 35
e 66 39
e 66 42
e 66 43
e 66 46
e 66 49
e 66 53
e 66 55
e 67 2
e 67 11
e 67 16
e 67 23
e 67 24
e 67 29
e 67 31
e 67 33
e 67 35
e 67 42
e 67 54
e 67 66
e 68 12
e 68 19
e 68 28
e 68 49
e 68 51
e 68 52
e 69 19
e 69 28
e 69 49
e 69 51
e 69 52
e 69 58
e 69 68
e 70 32
e 70 34
e 70 46
e 70 55
e 71 8
e 71 18
e 71 19
e 71 20
e 71 34
e 71 46
e 71 49
e 71 58
e 71 59
e 71 69
e 72 2
e 72 3
e 72 19
e 72 23
e 72 29
e 72 33
e 72 35
e 72 43
e 72 58
e 72 67
e 73 17
e 73 19
e 73 37
e 73 45
e 73 50
e 73 58
e 74 2
e 74 4
e 74 12
e 74 14
e 74 19
e 74 20
e 74 21
e 74 32
e 74 34
e 74 46
e 74 55
e 74 66
e 74 70
e 76 2
e 76 9
e 76 11
e 76 14
e 76 16
e 76 31
e 76 35
e 76 40
e 76 44
e 76 54
e 76 66
e 76 67
e 77 16
e 77 22
e 77 42
e 77 63
e 78 5
e 79 1
e 79 2
e 79 4
e 79 14
e 79 20
e 79 21
e 79 49
e 79 66
e 80 2
e 80 24
e 80 66
e 80 67
e 80 76
e 81 2
e 81 19
e 81 42
e 81 43
e 81 53
e 81 66
e 83 1
e 83 2
e 83 3
e 83 4
e 83 5
e 83 6
e 83 7
e 83 8
e 83 9
e 83 10
e 83 11
e 83 12
e 83 14
e 83 15
e 83 16
e 83 17
e 83 18
e 83 19
e 83 20
e 83 21
e 83 22
e 83 23
e 83 24
e 83 25
e 83 26
e 83 28
e 83 29
e 83 30
e 83 31
e 83 32
e 83 33
e 83 34
e 83 35
e 83 36
e 83 37
e 83 38
e 83 39
e 83 40
e 83 41
e 83 42
e 83 43
e 83 44
e 83 45
e 83 46
e 83 47
e 83 48
e 83 49
e 83 50
e 83 51
e 83 52
e 83 53
e 83 54
e 83 55
e 83 56
e 83 57
e 83 58
e 83 59
e 83 61
e 83 62
e 83 63
e 83 64
e 83 65
e 83 66
e 83 67
e 83 68
e 83 69
e 83 70
e 83 71
e 83 72
e 83 73
e 83 74
e 83 75
e 83 76
e 83 77
e 83 78
e 83 79
e 83 80
e 83 81
e 83 82
e 84 17
e 84 19
e 84 37
e 84 45
e 84 50
e 84 58
e 84 73
e 84 83
e 85 13
e 85 19
e 85 27
e 85 43
e 85 51
e 85 60
e 86 2
e 86 35
e 86 66
e 86 83
e 87 2
e 87 3
e 87 4
e 87 7
e 87 17
e 87 19
e 87 20
e 87 23
e 87 29
e 87 32
e 87 33
e 87 34
e 87 35
e 87 37
e 87 42
e 87 43
e 87 45
e 87 46
e 87 50
e 87 53
e 87 55
e 87 58
e 87 66
e 87 67
e 87 72
e 87 73
e 87 74
e 87 81
e 87 83
e 87 84
